p tw 760 17481 8 
1 9 
1 11 
2 7 
2 10 
2 12 
3 4 
3 5 
3 8 
3 10 
4 6 
4 7 
4 9 
5 6 
5 9 
5 10 
6 7 
6 8 
7 8 
7 9 
7 10 
8 9 
8 10 
9 10 
11 18 
11 19 
12 17 
12 20 
13 14 
13 18 
13 20 
13 23 
14 17 
14 19 
14 24 
15 16 
15 19 
15 20 
15 25 
16 17 
16 18 
16 26 
17 18 
17 19 
17 20 
18 19 
18 20 
19 20 
21 28 
21 29 
21 31 
22 27 
22 30 
22 32 
23 24 
23 28 
23 30 
24 27 
24 29 
25 26 
25 29 
25 30 
26 27 
26 28 
27 28 
27 29 
27 30 
28 29 
28 30 
29 30 
31 38 
31 39 
32 37 
32 40 
33 34 
33 38 
33 40 
33 43 
34 37 
34 39 
34 44 
35 36 
35 39 
35 40 
35 45 
36 37 
36 38 
36 46 
37 38 
37 39 
37 40 
38 39 
38 40 
39 40 
41 48 
41 49 
41 51 
42 47 
42 50 
42 52 
43 44 
43 48 
43 50 
44 47 
44 49 
45 46 
45 49 
45 50 
46 47 
46 48 
47 48 
47 49 
47 50 
48 49 
48 50 
49 50 
51 58 
51 59 
52 57 
52 60 
53 54 
53 58 
53 60 
53 63 
54 57 
54 59 
54 64 
55 56 
55 59 
55 60 
55 65 
56 57 
56 58 
56 66 
57 58 
57 59 
57 60 
58 59 
58 60 
59 60 
61 68 
61 69 
61 71 
62 67 
62 70 
62 72 
63 64 
63 68 
63 70 
64 67 
64 69 
65 66 
65 69 
65 70 
66 67 
66 68 
67 68 
67 69 
67 70 
68 69 
68 70 
69 70 
71 78 
71 79 
72 77 
72 80 
73 74 
73 78 
73 80 
73 83 
74 77 
74 79 
74 84 
75 76 
75 79 
75 80 
75 85 
76 77 
76 78 
76 86 
77 78 
77 79 
77 80 
78 79 
78 80 
79 80 
81 88 
81 89 
81 91 
82 87 
82 90 
82 92 
83 84 
83 88 
83 90 
84 87 
84 89 
85 86 
85 89 
85 90 
86 87 
86 88 
87 88 
87 89 
87 90 
88 89 
88 90 
89 90 
91 98 
91 99 
92 97 
92 100 
93 94 
93 98 
93 100 
93 103 
94 97 
94 99 
94 104 
95 96 
95 99 
95 100 
95 105 
96 97 
96 98 
96 106 
97 98 
97 99 
97 100 
98 99 
98 100 
99 100 
101 108 
101 109 
101 111 
102 107 
102 110 
102 112 
103 104 
103 108 
103 110 
104 107 
104 109 
105 106 
105 109 
105 110 
106 107 
106 108 
107 108 
107 109 
107 110 
108 109 
108 110 
109 110 
111 118 
111 119 
112 117 
112 120 
113 114 
113 118 
113 120 
113 123 
114 117 
114 119 
114 124 
115 116 
115 119 
115 120 
115 125 
116 117 
116 118 
116 126 
117 118 
117 119 
117 120 
118 119 
118 120 
119 120 
121 128 
121 129 
121 131 
122 127 
122 130 
122 132 
123 124 
123 128 
123 130 
124 127 
124 129 
125 126 
125 129 
125 130 
126 127 
126 128 
127 128 
127 129 
127 130 
128 129 
128 130 
129 130 
131 138 
131 139 
132 137 
132 140 
133 134 
133 138 
133 140 
133 143 
134 137 
134 139 
134 144 
135 136 
135 139 
135 140 
135 145 
136 137 
136 138 
136 146 
137 138 
137 139 
137 140 
138 139 
138 140 
139 140 
141 148 
141 149 
141 151 
142 147 
142 150 
142 152 
143 144 
143 148 
143 150 
144 147 
144 149 
145 146 
145 149 
145 150 
146 147 
146 148 
147 148 
147 149 
147 150 
148 149 
148 150 
149 150 
151 158 
151 159 
152 157 
152 160 
153 154 
153 158 
153 160 
153 163 
154 157 
154 159 
154 164 
155 156 
155 159 
155 160 
155 165 
156 157 
156 158 
156 166 
157 158 
157 159 
157 160 
158 159 
158 160 
159 160 
161 168 
161 169 
161 171 
162 167 
162 170 
162 172 
163 164 
163 168 
163 170 
164 167 
164 169 
165 166 
165 169 
165 170 
166 167 
166 168 
167 168 
167 169 
167 170 
168 169 
168 170 
169 170 
171 178 
171 179 
172 177 
172 180 
173 174 
173 178 
173 180 
173 183 
174 177 
174 179 
174 184 
175 176 
175 179 
175 180 
175 185 
176 177 
176 178 
176 186 
177 178 
177 179 
177 180 
178 179 
178 180 
179 180 
181 188 
181 189 
181 191 
182 187 
182 190 
182 192 
183 184 
183 188 
183 190 
184 187 
184 189 
185 186 
185 189 
185 190 
186 187 
186 188 
187 188 
187 189 
187 190 
188 189 
188 190 
189 190 
191 198 
191 199 
192 197 
192 200 
193 194 
193 198 
193 200 
193 203 
194 197 
194 199 
194 204 
195 196 
195 199 
195 200 
195 205 
196 197 
196 198 
196 206 
197 198 
197 199 
197 200 
198 199 
198 200 
199 200 
201 208 
201 209 
201 211 
202 207 
202 210 
202 212 
203 204 
203 208 
203 210 
204 207 
204 209 
205 206 
205 209 
205 210 
206 207 
206 208 
207 208 
207 209 
207 210 
208 209 
208 210 
209 210 
211 218 
211 219 
212 217 
212 220 
213 214 
213 218 
213 220 
213 223 
214 217 
214 219 
214 224 
215 216 
215 219 
215 220 
215 225 
216 217 
216 218 
216 226 
217 218 
217 219 
217 220 
218 219 
218 220 
219 220 
221 228 
221 229 
221 231 
222 227 
222 230 
222 232 
223 224 
223 228 
223 230 
224 227 
224 229 
225 226 
225 229 
225 230 
226 227 
226 228 
227 228 
227 229 
227 230 
228 229 
228 230 
229 230 
231 238 
231 239 
232 237 
232 240 
233 234 
233 238 
233 240 
233 243 
234 237 
234 239 
234 244 
235 236 
235 239 
235 240 
235 245 
236 237 
236 238 
236 246 
237 238 
237 239 
237 240 
238 239 
238 240 
239 240 
241 248 
241 249 
241 251 
242 247 
242 250 
242 252 
243 244 
243 248 
243 250 
244 247 
244 249 
245 246 
245 249 
245 250 
246 247 
246 248 
247 248 
247 249 
247 250 
248 249 
248 250 
249 250 
251 258 
251 259 
252 257 
252 260 
253 254 
253 258 
253 260 
253 263 
254 257 
254 259 
254 264 
255 256 
255 259 
255 260 
255 265 
256 257 
256 258 
256 266 
257 258 
257 259 
257 260 
258 259 
258 260 
259 260 
261 268 
261 269 
261 271 
262 267 
262 270 
262 272 
263 264 
263 268 
263 270 
264 267 
264 269 
265 266 
265 269 
265 270 
266 267 
266 268 
267 268 
267 269 
267 270 
268 269 
268 270 
269 270 
271 278 
271 279 
272 277 
272 280 
273 274 
273 278 
273 280 
273 283 
274 277 
274 279 
274 284 
275 276 
275 279 
275 280 
275 285 
276 277 
276 278 
276 286 
277 278 
277 279 
277 280 
278 279 
278 280 
279 280 
281 288 
281 289 
281 291 
282 287 
282 290 
282 292 
283 284 
283 288 
283 290 
284 287 
284 289 
285 286 
285 289 
285 290 
286 287 
286 288 
287 288 
287 289 
287 290 
288 289 
288 290 
289 290 
291 298 
291 299 
292 297 
292 300 
293 294 
293 298 
293 300 
293 303 
294 297 
294 299 
294 304 
295 296 
295 299 
295 300 
295 305 
296 297 
296 298 
296 306 
297 298 
297 299 
297 300 
298 299 
298 300 
299 300 
301 308 
301 309 
301 311 
302 307 
302 310 
302 312 
303 304 
303 308 
303 310 
304 307 
304 309 
305 306 
305 309 
305 310 
306 307 
306 308 
307 308 
307 309 
307 310 
308 309 
308 310 
309 310 
311 318 
311 319 
312 317 
312 320 
313 314 
313 318 
313 320 
313 323 
314 317 
314 319 
314 324 
315 316 
315 319 
315 320 
315 325 
316 317 
316 318 
316 326 
317 318 
317 319 
317 320 
318 319 
318 320 
319 320 
321 328 
321 329 
321 331 
322 327 
322 330 
322 332 
323 324 
323 328 
323 330 
324 327 
324 329 
325 326 
325 329 
325 330 
326 327 
326 328 
327 328 
327 329 
327 330 
328 329 
328 330 
329 330 
331 338 
331 339 
332 337 
332 340 
333 334 
333 338 
333 340 
333 343 
334 337 
334 339 
334 344 
335 336 
335 339 
335 340 
335 345 
336 337 
336 338 
336 346 
337 338 
337 339 
337 340 
338 339 
338 340 
339 340 
341 348 
341 349 
341 351 
342 347 
342 350 
342 352 
343 344 
343 348 
343 350 
344 347 
344 349 
345 346 
345 349 
345 350 
346 347 
346 348 
347 348 
347 349 
347 350 
348 349 
348 350 
349 350 
351 358 
351 359 
352 357 
352 360 
353 354 
353 358 
353 360 
353 363 
354 357 
354 359 
354 364 
355 356 
355 359 
355 360 
355 365 
356 357 
356 358 
356 366 
357 358 
357 359 
357 360 
358 359 
358 360 
359 360 
361 368 
361 369 
361 371 
362 367 
362 370 
362 372 
363 364 
363 368 
363 370 
364 367 
364 369 
365 366 
365 369 
365 370 
366 367 
366 368 
367 368 
367 369 
367 370 
368 369 
368 370 
369 370 
371 378 
371 379 
372 377 
372 380 
373 374 
373 378 
373 380 
373 383 
374 377 
374 379 
374 384 
375 376 
375 379 
375 380 
375 385 
376 377 
376 378 
376 386 
377 378 
377 379 
377 380 
378 379 
378 380 
379 380 
381 388 
381 389 
381 391 
382 387 
382 390 
382 392 
383 384 
383 388 
383 390 
384 387 
384 389 
385 386 
385 389 
385 390 
386 387 
386 388 
387 388 
387 389 
387 390 
388 389 
388 390 
389 390 
391 398 
391 399 
392 397 
392 400 
393 394 
393 398 
393 400 
393 403 
394 397 
394 399 
394 404 
395 396 
395 399 
395 400 
395 405 
396 397 
396 398 
396 406 
397 398 
397 399 
397 400 
398 399 
398 400 
399 400 
401 408 
401 409 
401 411 
402 407 
402 410 
402 412 
403 404 
403 408 
403 410 
404 407 
404 409 
405 406 
405 409 
405 410 
406 407 
406 408 
407 408 
407 409 
407 410 
408 409 
408 410 
409 410 
411 418 
411 419 
412 417 
412 420 
413 414 
413 418 
413 420 
413 423 
414 417 
414 419 
414 424 
415 416 
415 419 
415 420 
415 425 
416 417 
416 418 
416 426 
417 418 
417 419 
417 420 
418 419 
418 420 
419 420 
421 428 
421 429 
421 431 
422 427 
422 430 
422 432 
423 424 
423 428 
423 430 
424 427 
424 429 
425 426 
425 429 
425 430 
426 427 
426 428 
427 428 
427 429 
427 430 
428 429 
428 430 
429 430 
431 438 
431 439 
432 437 
432 440 
433 434 
433 438 
433 440 
433 443 
434 437 
434 439 
434 444 
435 436 
435 439 
435 440 
435 445 
436 437 
436 438 
436 446 
437 438 
437 439 
437 440 
438 439 
438 440 
439 440 
441 448 
441 449 
441 451 
442 447 
442 450 
442 452 
443 444 
443 448 
443 450 
444 447 
444 449 
445 446 
445 449 
445 450 
446 447 
446 448 
447 448 
447 449 
447 450 
448 449 
448 450 
449 450 
451 458 
451 459 
452 457 
452 460 
453 454 
453 458 
453 460 
453 463 
454 457 
454 459 
454 464 
455 456 
455 459 
455 460 
455 465 
456 457 
456 458 
456 466 
457 458 
457 459 
457 460 
458 459 
458 460 
459 460 
461 468 
461 469 
461 471 
462 467 
462 470 
462 472 
463 464 
463 468 
463 470 
464 467 
464 469 
465 466 
465 469 
465 470 
466 467 
466 468 
467 468 
467 469 
467 470 
468 469 
468 470 
469 470 
471 478 
471 479 
472 477 
472 480 
473 474 
473 478 
473 480 
473 483 
474 477 
474 479 
474 484 
475 476 
475 479 
475 480 
475 485 
476 477 
476 478 
476 486 
477 478 
477 479 
477 480 
478 479 
478 480 
479 480 
481 488 
481 489 
481 491 
482 487 
482 490 
482 492 
483 484 
483 488 
483 490 
484 487 
484 489 
485 486 
485 489 
485 490 
486 487 
486 488 
487 488 
487 489 
487 490 
488 489 
488 490 
489 490 
491 498 
491 499 
492 497 
492 500 
493 494 
493 498 
493 500 
493 503 
494 497 
494 499 
494 504 
495 496 
495 499 
495 500 
495 505 
496 497 
496 498 
496 506 
497 498 
497 499 
497 500 
498 499 
498 500 
499 500 
501 508 
501 509 
501 511 
502 507 
502 510 
502 512 
503 504 
503 508 
503 510 
504 507 
504 509 
505 506 
505 509 
505 510 
506 507 
506 508 
507 508 
507 509 
507 510 
508 509 
508 510 
509 510 
511 518 
511 519 
512 517 
512 520 
513 514 
513 518 
513 520 
513 523 
514 517 
514 519 
514 524 
515 516 
515 519 
515 520 
515 525 
516 517 
516 518 
516 526 
517 518 
517 519 
517 520 
518 519 
518 520 
519 520 
521 528 
521 529 
521 531 
522 527 
522 530 
522 532 
523 524 
523 528 
523 530 
524 527 
524 529 
525 526 
525 529 
525 530 
526 527 
526 528 
527 528 
527 529 
527 530 
528 529 
528 530 
529 530 
531 538 
531 539 
532 537 
532 540 
533 534 
533 538 
533 540 
533 543 
534 537 
534 539 
534 544 
535 536 
535 539 
535 540 
535 545 
536 537 
536 538 
536 546 
537 538 
537 539 
537 540 
538 539 
538 540 
539 540 
541 548 
541 549 
541 551 
542 547 
542 550 
542 552 
543 544 
543 548 
543 550 
544 547 
544 549 
545 546 
545 549 
545 550 
546 547 
546 548 
547 548 
547 549 
547 550 
548 549 
548 550 
549 550 
551 558 
551 559 
552 557 
552 560 
553 554 
553 558 
553 560 
553 563 
554 557 
554 559 
554 564 
555 556 
555 559 
555 560 
555 565 
556 557 
556 558 
556 566 
557 558 
557 559 
557 560 
558 559 
558 560 
559 560 
561 568 
561 569 
561 571 
562 567 
562 570 
562 572 
563 564 
563 568 
563 570 
564 567 
564 569 
565 566 
565 569 
565 570 
566 567 
566 568 
567 568 
567 569 
567 570 
568 569 
568 570 
569 570 
571 578 
571 579 
572 577 
572 580 
573 574 
573 578 
573 580 
573 583 
574 577 
574 579 
574 584 
575 576 
575 579 
575 580 
575 585 
576 577 
576 578 
576 586 
577 578 
577 579 
577 580 
578 579 
578 580 
579 580 
581 588 
581 589 
581 591 
582 587 
582 590 
582 592 
583 584 
583 588 
583 590 
584 587 
584 589 
585 586 
585 589 
585 590 
586 587 
586 588 
587 588 
587 589 
587 590 
588 589 
588 590 
589 590 
591 598 
591 599 
592 597 
592 600 
593 594 
593 598 
593 600 
593 603 
594 597 
594 599 
594 604 
595 596 
595 599 
595 600 
595 605 
596 597 
596 598 
596 606 
597 598 
597 599 
597 600 
598 599 
598 600 
599 600 
601 608 
601 609 
601 611 
602 607 
602 610 
602 612 
603 604 
603 608 
603 610 
604 607 
604 609 
605 606 
605 609 
605 610 
606 607 
606 608 
607 608 
607 609 
607 610 
608 609 
608 610 
609 610 
611 618 
611 619 
612 617 
612 620 
613 614 
613 618 
613 620 
613 623 
614 617 
614 619 
614 624 
615 616 
615 619 
615 620 
615 625 
616 617 
616 618 
616 626 
617 618 
617 619 
617 620 
618 619 
618 620 
619 620 
621 628 
621 629 
621 631 
622 627 
622 630 
622 632 
623 624 
623 628 
623 630 
624 627 
624 629 
625 626 
625 629 
625 630 
626 627 
626 628 
627 628 
627 629 
627 630 
628 629 
628 630 
629 630 
631 638 
631 639 
632 637 
632 640 
633 634 
633 638 
633 640 
633 643 
634 637 
634 639 
634 644 
635 636 
635 639 
635 640 
635 645 
636 637 
636 638 
636 646 
637 638 
637 639 
637 640 
638 639 
638 640 
639 640 
641 648 
641 649 
641 651 
642 647 
642 650 
642 652 
643 644 
643 648 
643 650 
644 647 
644 649 
645 646 
645 649 
645 650 
646 647 
646 648 
647 648 
647 649 
647 650 
648 649 
648 650 
649 650 
651 658 
651 659 
652 657 
652 660 
653 654 
653 658 
653 660 
653 663 
654 657 
654 659 
654 664 
655 656 
655 659 
655 660 
655 665 
656 657 
656 658 
656 666 
657 658 
657 659 
657 660 
658 659 
658 660 
659 660 
661 668 
661 669 
661 671 
662 667 
662 670 
662 672 
663 664 
663 668 
663 670 
664 667 
664 669 
665 666 
665 669 
665 670 
666 667 
666 668 
667 668 
667 669 
667 670 
668 669 
668 670 
669 670 
671 678 
671 679 
672 677 
672 680 
673 674 
673 678 
673 680 
673 683 
674 677 
674 679 
674 684 
675 676 
675 679 
675 680 
675 685 
676 677 
676 678 
676 686 
677 678 
677 679 
677 680 
678 679 
678 680 
679 680 
681 688 
681 689 
681 691 
682 687 
682 690 
682 692 
683 684 
683 688 
683 690 
684 687 
684 689 
685 686 
685 689 
685 690 
686 687 
686 688 
687 688 
687 689 
687 690 
688 689 
688 690 
689 690 
691 698 
691 699 
692 697 
692 700 
693 694 
693 698 
693 700 
693 703 
694 697 
694 699 
694 704 
695 696 
695 699 
695 700 
695 705 
696 697 
696 698 
696 706 
697 698 
697 699 
697 700 
698 699 
698 700 
699 700 
701 708 
701 709 
701 711 
702 707 
702 710 
702 712 
703 704 
703 708 
703 710 
704 707 
704 709 
705 706 
705 709 
705 710 
706 707 
706 708 
707 708 
707 709 
707 710 
708 709 
708 710 
709 710 
711 718 
711 719 
712 717 
712 720 
713 714 
713 718 
713 720 
713 723 
714 717 
714 719 
714 724 
715 716 
715 719 
715 720 
715 725 
716 717 
716 718 
716 726 
717 718 
717 719 
717 720 
718 719 
718 720 
719 720 
721 728 
721 729 
721 731 
722 727 
722 730 
722 732 
723 724 
723 728 
723 730 
724 727 
724 729 
725 726 
725 729 
725 730 
726 727 
726 728 
727 728 
727 729 
727 730 
728 729 
728 730 
729 730 
731 738 
731 739 
732 737 
732 740 
733 734 
733 738 
733 740 
733 743 
734 737 
734 739 
734 744 
735 736 
735 739 
735 740 
735 745 
736 737 
736 738 
736 746 
737 738 
737 739 
737 740 
738 739 
738 740 
739 740 
741 748 
741 749 
741 751 
742 747 
742 750 
742 752 
743 744 
743 748 
743 750 
744 747 
744 749 
745 746 
745 749 
745 750 
746 747 
746 748 
747 748 
747 749 
747 750 
748 749 
748 750 
749 750 
751 758 
751 759 
752 757 
752 760 
753 754 
753 755 
753 758 
753 760 
754 756 
754 757 
754 759 
755 756 
755 759 
755 760 
756 757 
756 758 
757 758 
757 759 
757 760 
758 759 
758 760 
759 760 
